<number of tasks>
30

<cycle time>
36

<task times>
1 8
2 7
3 19
4 10
5 2
6 6
7 14
8 10
9 1
10 4
11 14
12 15
13 5
14 12
15 9
16 10
17 2
18 10
19 18
20 16
21 21
22 14
23 16
24 7
25 17
26 9
27 25
28 7
29 14
30 2

<precedence relations>
1,4
1,5
2,11
2,12
3,16
3,17
4,7
5,6
6,7
7,8
8,9
9,26
10,24
12,13
13,14
14,15
14,20
15,22
16,20
17,18
18,19
20,21
20,24
21,22
22,23
23,27
24,25
25,26
26,27
27,28
27,29
29,30

<setup times forward>
1,4:3
1,10:2
1,11:1
1,12:3
1,13:3
1,14:1
1,15:2
1,16:1
1,17:1
1,18:1
1,19:1
1,20:1
1,21:2
1,22:3
1,23:3
2,4:3
2,6:3
2,7:1
2,9:2
2,10:2
2,11:1
2,12:3
2,16:1
2,17:1
2,18:1
2,19:1
3,4:3
3,6:3
3,7:1
3,9:2
3,10:2
3,11:1
3,12:3
3,13:3
3,14:1
3,15:2
3,16:1
3,17:1
4,2:3
4,3:3
4,5:3
4,7:4
4,10:5
4,11:4
4,14:2
4,15:5
4,16:2
4,17:4
4,18:2
4,19:2
4,20:2
4,21:5
4,22:6
4,23:6
4,24:3
4,25:3
5,4:3
5,6:3
5,10:2
5,11:1
5,12:3
5,13:3
5,14:1
5,15:2
5,16:1
5,17:1
5,18:1
5,19:1
5,20:1
5,21:2
5,22:3
5,23:3
6,2:3
6,3:3
6,7:4
6,10:5
6,11:4
6,14:2
6,15:5
6,16:2
6,17:4
6,18:2
6,19:2
6,20:2
6,21:5
6,22:6
6,23:6
6,24:3
6,25:3
7,2:1
7,3:1
7,8:1
7,10:1
7,12:4
7,13:4
7,14:2
7,15:1
7,16:2
7,18:2
7,19:2
7,20:2
7,21:1
7,22:2
7,23:2
7,24:1
7,25:1
8,9:2
8,10:2
8,11:1
8,12:3
8,13:3
8,14:1
8,15:2
8,16:1
8,17:1
8,18:1
8,19:1
8,20:1
8,21:2
8,22:3
8,23:3
9,2:2
9,3:2
9,10:4
9,11:3
9,12:1
9,13:1
9,14:1
9,15:4
9,16:1
9,17:3
9,18:1
9,19:1
9,20:1
9,21:4
9,22:5
9,23:5
9,24:2
9,25:2
10,1:2
10,2:2
10,3:2
10,4:5
10,5:2
10,6:5
10,7:1
10,8:2
10,9:4
10,11:1
10,12:5
10,13:5
10,14:3
10,16:3
10,17:1
10,18:3
10,19:3
10,20:3
10,22:1
10,23:1
10,24:2
11,1:1
11,3:1
11,4:4
11,5:1
11,6:4
11,8:1
11,9:3
11,10:1
11,12:4
11,13:4
11,14:2
11,15:1
11,16:2
11,18:2
11,19:2
11,20:2
11,21:1
11,22:2
11,23:2
11,24:1
11,25:1
11,26:3
11,27:3
12,1:3
12,3:3
12,5:3
12,7:4
12,8:3
12,9:1
12,10:5
12,11:4
12,16:2
12,17:4
12,18:2
12,19:2
13,1:3
13,3:3
13,5:3
13,7:4
13,8:3
13,9:1
13,10:5
13,11:4
13,14:2
13,16:2
13,17:4
13,18:2
13,19:2
14,1:1
14,3:1
14,4:2
14,5:1
14,6:2
14,7:2
14,8:1
14,9:1
14,10:3
14,11:2
14,15:3
14,17:2
15,1:2
15,3:2
15,4:5
15,5:2
15,6:5
15,7:1
15,8:2
15,9:4
15,11:1
15,16:3
15,17:1
15,18:3
15,19:3
15,20:3
15,22:1
15,24:2
15,25:2
15,26:4
16,1:1
16,2:1
16,4:2
16,5:1
16,6:2
16,7:2
16,8:1
16,9:1
16,10:3
16,11:2
16,12:2
16,13:2
16,15:3
16,17:2
17,1:1
17,2:1
17,4:4
17,5:1
17,6:4
17,8:1
17,9:3
17,10:1
17,12:4
17,13:4
17,14:2
17,15:1
17,16:2
17,18:2
17,20:2
17,21:1
17,22:2
17,23:2
17,24:1
17,25:1
17,26:3
17,27:3
18,1:1
18,2:1
18,4:2
18,5:1
18,6:2
18,7:2
18,8:1
18,9:1
18,10:3
18,11:2
18,12:2
18,13:2
18,15:3
18,21:3
18,22:4
18,23:4
18,24:1
18,25:1
18,26:1
18,27:1
18,28:2
18,29:2
18,30:2
19,1:1
19,2:1
19,4:2
19,5:1
19,6:2
19,7:2
19,8:1
19,9:1
19,10:3
19,11:2
19,12:2
19,13:2
19,15:3
19,21:3
19,22:4
19,23:4
19,24:1
19,25:1
19,26:1
19,27:1
19,28:2
19,29:2
19,30:2
20,1:1
20,4:2
20,5:1
20,6:2
20,7:2
20,8:1
20,9:1
20,10:3
20,11:2
20,15:3
20,17:2
20,21:3
20,24:1
21,1:2
21,4:5
21,5:2
21,6:5
21,7:1
21,8:2
21,9:4
21,11:1
21,17:1
21,18:3
21,19:3
21,22:1
21,24:2
21,25:2
21,26:4
22,1:3
22,4:6
22,5:3
22,6:6
22,7:2
22,8:3
22,9:5
22,10:1
22,11:2
22,17:2
22,18:4
22,19:4
22,24:3
22,25:3
22,26:5
23,1:3
23,4:6
23,5:3
23,6:6
23,7:2
23,8:3
23,9:5
23,10:1
23,11:2
23,17:2
23,18:4
23,19:4
23,24:3
23,25:3
23,26:5
23,27:5
24,4:3
24,6:3
24,7:1
24,9:2
24,11:1
24,15:2
24,17:1
24,18:1
24,19:1
24,21:2
24,22:3
24,23:3
25,4:3
25,6:3
25,7:1
25,9:2
25,11:1
25,15:2
25,17:1
25,18:1
25,19:1
25,21:2
25,22:3
25,23:3
25,26:2
26,11:3
26,15:4
26,17:3
26,18:1
26,19:1
26,21:4
26,22:5
26,23:5
27,11:3
27,17:3
27,18:1
27,19:1
27,28:3
27,29:3
28,18:2
28,19:2
29,18:2
29,19:2
30,18:2
30,19:2

<setup times backward>
1,10:2
1,11:1
1,15:2
1,17:1
1,21:2
1,22:3
1,23:3
2,7:1
2,10:2
2,17:1
3,7:1
3,10:2
3,11:1
3,15:2
4,1:3
4,2:3
4,3:3
4,5:3
4,10:5
4,11:4
4,14:2
4,15:5
4,16:2
4,17:4
4,18:2
4,19:2
4,20:2
4,21:5
4,22:6
4,23:6
4,24:3
4,25:3
5,10:2
5,11:1
5,15:2
5,17:1
5,21:2
5,22:3
5,23:3
6,1:3
6,2:3
6,3:3
6,5:3
6,10:5
6,11:4
6,14:2
6,15:5
6,16:2
6,17:4
6,18:2
6,19:2
6,20:2
6,21:5
6,22:6
6,23:6
6,24:3
6,25:3
7,10:1
7,15:1
7,21:1
7,22:2
7,23:2
8,7:1
8,10:2
8,11:1
8,15:2
8,17:1
8,21:2
8,22:3
8,23:3
9,1:2
9,2:2
9,3:2
9,5:2
9,7:3
9,8:2
9,10:4
9,11:3
9,14:1
9,15:4
9,16:1
9,17:3
9,18:1
9,19:1
9,20:1
9,21:4
9,22:5
9,23:5
9,24:2
9,25:2
10,22:1
10,23:1
11,10:1
11,15:1
11,21:1
11,22:2
11,23:2
12,1:3
12,2:3
12,3:3
12,5:3
12,7:4
12,8:3
12,9:1
12,10:5
12,11:4
12,16:2
12,17:4
12,18:2
12,19:2
13,1:3
13,2:3
13,3:3
13,5:3
13,7:4
13,8:3
13,9:1
13,10:5
13,11:4
13,16:2
13,17:4
13,18:2
13,19:2
14,1:1
14,2:1
14,3:1
14,5:1
14,7:2
14,8:1
14,10:3
14,11:2
14,17:2
16,1:1
16,2:1
16,3:1
16,5:1
16,7:2
16,8:1
16,10:3
16,11:2
16,15:3
16,17:2
17,10:1
17,15:1
17,21:1
17,22:2
17,23:2
18,1:1
18,2:1
18,3:1
18,5:1
18,7:2
18,8:1
18,10:3
18,11:2
18,15:3
18,17:2
18,21:3
18,22:4
18,23:4
18,24:1
18,25:1
18,28:2
18,29:2
18,30:2
19,1:1
19,2:1
19,3:1
19,5:1
19,7:2
19,8:1
19,10:3
19,11:2
19,15:3
19,17:2
19,21:3
19,22:4
19,23:4
19,24:1
19,25:1
19,28:2
19,29:2
19,30:2
20,1:1
20,2:1
20,3:1
20,5:1
20,7:2
20,8:1
20,10:3
20,11:2
20,15:3
20,17:2
24,7:1
24,10:2
24,11:1
24,15:2
24,17:1
24,21:2
24,22:3
24,23:3
25,7:1
25,10:2
25,11:1
25,15:2
25,17:1
25,21:2
25,22:3
25,23:3
26,1:2
26,2:2
26,3:2
26,5:2
26,7:3
26,8:2
26,10:4
26,11:3
26,14:1
26,15:4
26,16:1
26,17:3
26,18:1
26,19:1
26,20:1
26,21:4
26,22:5
26,23:5
26,24:2
26,25:2
27,1:2
27,2:2
27,3:2
27,5:2
27,7:3
27,8:2
27,10:4
27,11:3
27,14:1
27,15:4
27,16:1
27,17:3
27,18:1
27,19:1
27,20:1
27,21:4
27,22:5
27,23:5
27,24:2
27,25:2
28,10:1
28,15:1
28,21:1
28,22:2
28,23:2
29,10:1
29,15:1
29,21:1
29,22:2
29,23:2
30,10:1
30,15:1
30,21:1
30,22:2
30,23:2

<end>

<optimal SALBP-1 value>
10


<rand seed>
467321153

<Lower Bounds>
Lm1=9
Lms1=9
Lm2=4
Lm3=7
Lm4=9
Best=9

<Optimal Stations (Iterations: 10)>
12
